NAME : local_2
TYPE : ATSP
DIMENSION : 10
EDGE_WEIGHT_TYPE : EXPLICIT
EDGE_WEIGHT_FORMAT : FULL_MATRIX
EDGE_WEIGHT_SECTION
0 121 421 880 10000000 508 10000000 10000000 10000000 10000000 
0 0 347 855 10000000 539 10000000 10000000 10000000 10000000 
0 347 0 561 10000000 420 10000000 10000000 10000000 10000000 
0 855 561 0 10000000 520 10000000 10000000 10000000 10000000 
0 10000000 10000000 10000000 0 10000000 233 454 374 820 
0 539 420 520 10000000 0 10000000 10000000 10000000 10000000 
0 10000000 10000000 10000000 233 10000000 0 354 280 713 
0 10000000 10000000 10000000 454 10000000 354 0 241 369 
0 10000000 10000000 10000000 374 10000000 280 241 0 545 
0 10000000 10000000 10000000 10000000 10000000 10000000 10000000 10000000 0 
EOF